db/data/37751949623261711413013195491202212019.z3.out
sat
-------------------
364.200814396
